992 970
278 564 431 199 576 481 359 536 385 636 580 539 477 466 504 498 322 211 542 590 321 489 532 275 505 288 465 450 484 434 494 384 534 571 629 414 455 410 350 467 387 569 545 328 488 406 544 262 365 265 354 220 198 415 437 438 620 432 580 614
613 347 203 590 608 573 296 585 486 399 570 587 323 278 592 577 496 464 296 619 414 546 623 402 443 320 275 425 279 411 274 289 489 590 537 580 555 498 504 511 482 615 404 599 348 547 428 291 611 380 392 432 524 366 313 194 201 593 500 491
334 669 240 159 243 505 154 196 525 323 426 306 613 841 827 283 232 733 441 807 330 537 696 763 675 153 719 252 362 848 415 464 211 205 278 146 630 514 527 240 626 299 591 442 354 595 762 363 155 782 427 689 583 702 819 499 230 806 551 342